\ LP format - for model browsing. Use MPS format to capture full model detail.
Minimize
 
Subject To
 CoreLinkBW-0: <= 1
 CoreLinkBW-1: <= 1
 CoreLinkBW-2: <= 1
 CoreLinkBW-3: <= 1
 CoreLinkBW-4: <= 1
 CoreLinkBW-5: <= 1
 CoreLinkBW-6: <= 1
 CoreLinkBW-7: <= 1
 CoreLinkBW-8: <= 1
 CoreLinkBW-9: <= 1
 CoreLinkBW-10: <= 1
 CoreLinkBW-11: <= 1
 CoreLinkBW-12: <= 1
 CoreLinkBW-13: <= 1
 CoreLinkBW-14: <= 1
 CoreLinkBW-15: <= 1
 CoreLinkBW-16: <= 1
 CoreLinkBW-17: <= 1
 CoreLinkBW-18: <= 1
 CoreLinkBW-19: <= 1
 CoreLinkBW-20: <= 1
 CoreLinkBW-21: <= 1
 CoreLinkBW-22: <= 1
 CoreLinkBW-23: <= 1
 CoreLinkBW-24: <= 1
 CoreLinkBW-25: <= 1
 CoreLinkBW-26: <= 1
 CoreLinkBW-27: <= 1
 CoreLinkBW-28: <= 1
 CoreLinkBW-29: <= 1
 CoreLinkBW-30: <= 1
 CoreLinkBW-31: <= 1
 CoreLinkBW-32: <= 1
 CoreLinkBW-33: <= 1
 CoreLinkBW-34: <= 1
 CoreLinkBW-35: <= 1
 CoreLinkBW-36: <= 1
 CoreLinkBW-37: <= 1
 CoreLinkBW-38: <= 1
 CoreLinkBW-39: <= 1
 CoreLinkBW-40: <= 1
 CoreLinkBW-41: <= 1
 CoreLinkBW-42: <= 1
 CoreLinkBW-43: <= 1
 CoreLinkBW-44: <= 1
 CoreLinkBW-45: <= 1
 CoreLinkBW-46: <= 1
 CoreLinkBW-47: <= 1
 CoreLinkBW-48: <= 1
 CoreLinkBW-49: <= 1
 CoreLinkBW-50: <= 1
 CoreLinkBW-51: <= 1
 CoreLinkBW-52: <= 1
 CoreLinkBW-53: <= 1
 CoreLinkBW-54: <= 1
 CoreLinkBW-55: <= 1
 CoreLinkBW-56: <= 1
 CoreLinkBW-57: <= 1
 CoreLinkBW-58: <= 1
 CoreLinkBW-59: <= 1
 CoreLinkBW-60: <= 1
 CoreLinkBW-61: <= 1
 CoreLinkBW-62: <= 1
 CoreLinkBW-63: <= 1
 CoreLinkBW-64: <= 1
 CoreLinkBW-65: <= 1
 CoreLinkBW-66: <= 1
 CoreLinkBW-67: <= 1
 CoreLinkBW-68: <= 1
 CoreLinkBW-69: <= 1
 CoreLinkBW-70: <= 1
 CoreLinkBW-71: <= 1
 CoreLinkBW-72: <= 10
 CoreLinkBW-73: <= 10
 CoreLinkBW-74: <= 10
 CoreLinkBW-75: <= 10
 CoreLinkBW-76: <= 10
 CoreLinkBW-77: <= 10
 PCPBW-0: <= 10
 PCPBW-1: <= 10
 PCPBW-2: <= 10
 HostLinkCap-0: <= 1
 HostLinkCap-1: <= 1
 HostLinkCap-2: <= 1
 HostLinkCap-3: <= 1
 HostLinkCap-4: <= 1
 HostLinkCap-5: <= 1
 HostLinkCap-6: <= 1
 HostLinkCap-7: <= 1
 HostLinkCap-8: <= 1
 HostLinkCap-9: <= 1
 HostLinkCap-10: <= 1
 HostLinkCap-11: <= 1
 HostLinkCap-12: <= 1
 HostLinkCap-13: <= 1
 HostLinkCap-14: <= 1
 HostLinkCap-15: <= 1
 HostLinkCap-16: <= 1
 HostLinkCap-17: <= 1
 HostLinkCap-18: <= 1
 HostLinkCap-19: <= 1
 HostLinkCap-20: <= 1
 HostLinkCap-21: <= 1
 HostLinkCap-22: <= 1
 HostLinkCap-23: <= 1
 HostLinkCap-24: <= 1
 HostLinkCap-25: <= 1
 HostLinkCap-26: <= 1
 PhysicalSwitchTcam-0: <= 3000
 PhysicalSwitchTcam-1: <= 3000
 PhysicalSwitchTcam-2: <= 3000
Bounds
End
